! Infineon BFP420 S-parameters
! Bias: Vce = 2.0V, Ic = 5.0mA, Zo = 50 Ohm
# GHz S MA R 50
! Freq    S11_mag S11_ang  S21_mag S21_ang  S12_mag S12_ang  S22_mag S22_ang
1.500     0.638  -128.5    7.142    92.1    0.048    52.3    0.512   -52.1
1.800     0.622  -142.0    6.120    82.4    0.054    53.8    0.485   -59.4
2.000     0.615  -150.1    5.580    76.5    0.058    54.2    0.471   -64.2
2.200     0.610  -157.8    5.120    71.0    0.063    54.0    0.460   -69.0
2.400     0.608  -165.2    4.720    65.8    0.068    53.4    0.452   -73.8
2.600     0.607  -172.1    4.380    60.8    0.073    52.4    0.446   -78.5
2.800     0.608  -178.6    4.080    56.0    0.078    51.1    0.442   -83.1
3.000     0.611   175.2    3.820    51.4    0.084    49.5    0.439   -87.7
3.500     0.625   160.7    3.280    40.5    0.098    44.6    0.438   -99.1
! Noise Parameters: Freq(GHz) Fmin(dB) GammaOpt_mag GammaOpt_ang Rn/50
! NOISE
2.400     1.10    0.42    145.0    0.18
